c Result of efficient AIG-to-CNF conversion using package CNF
p cnf 343 1041
2 -268 340 -341 0
-2 268 0
-2 -340 0
-2 341 0
3 342 -4 0
3 -341 -342 -60 0
-3 341 -342 0
-3 342 4 0
-3 -342 60 0
4 247 248 5 -6 0
4 -247 -248 5 -6 0
-4 6 0
-4 -247 248 0
-4 -5 0
-4 247 -248 0
-5 -249 -250 0
-5 249 250 0
5 249 -250 0
5 -249 250 0
6 243 244 7 -8 0
6 -243 -244 7 -8 0
-6 8 0
-6 -243 244 0
-6 -7 0
-6 243 -244 0
-7 -245 -246 0
-7 245 246 0
7 245 -246 0
7 -245 246 0
8 239 240 9 -10 0
8 -239 -240 9 -10 0
-8 10 0
-8 -239 240 0
-8 -9 0
-8 239 -240 0
-9 -241 -242 0
-9 241 242 0
9 241 -242 0
9 -241 242 0
10 235 236 11 -12 0
10 -235 -236 11 -12 0
-10 12 0
-10 -235 236 0
-10 -11 0
-10 235 -236 0
-11 -237 -238 0
-11 237 238 0
11 237 -238 0
11 -237 238 0
12 231 232 13 -14 0
12 -231 -232 13 -14 0
-12 14 0
-12 -231 232 0
-12 -13 0
-12 231 -232 0
-13 -233 -234 0
-13 233 234 0
13 233 -234 0
13 -233 234 0
14 227 228 15 -16 0
14 -227 -228 15 -16 0
-14 16 0
-14 -227 228 0
-14 -15 0
-14 227 -228 0
-15 -229 -230 0
-15 229 230 0
15 229 -230 0
15 -229 230 0
16 223 224 17 -18 0
16 -223 -224 17 -18 0
-16 18 0
-16 -223 224 0
-16 -17 0
-16 223 -224 0
-17 -225 -226 0
-17 225 226 0
17 225 -226 0
17 -225 226 0
18 219 220 19 -20 0
18 -219 -220 19 -20 0
-18 20 0
-18 -219 220 0
-18 -19 0
-18 219 -220 0
-19 -221 -222 0
-19 221 222 0
19 221 -222 0
19 -221 222 0
20 215 216 21 -22 0
20 -215 -216 21 -22 0
-20 22 0
-20 -215 216 0
-20 -21 0
-20 215 -216 0
-21 -217 -218 0
-21 217 218 0
21 217 -218 0
21 -217 218 0
22 210 211 23 -24 0
22 -210 -211 23 -24 0
-22 24 0
-22 -210 211 0
-22 -23 0
-22 210 -211 0
-23 -212 -213 0
-23 212 213 0
23 212 -213 0
23 -212 213 0
24 205 206 25 -26 0
24 -205 -206 25 -26 0
-24 26 0
-24 -205 206 0
-24 -25 0
-24 205 -206 0
-25 -207 -208 0
-25 207 208 0
25 207 -208 0
25 -207 208 0
26 200 201 27 -28 0
26 -200 -201 27 -28 0
-26 28 0
-26 -200 201 0
-26 -27 0
-26 200 -201 0
-27 -202 -203 0
-27 202 203 0
27 202 -203 0
27 -202 203 0
28 -196 -197 -199 -29 0
-28 29 0
-28 196 0
-28 199 0
-28 197 0
29 197 204 209 -30 0
29 -197 -204 -209 -30 0
-29 -204 209 0
-29 197 -209 0
-29 30 0
-29 -197 204 0
30 201 209 214 -31 0
30 -201 -209 -214 -31 0
-30 -209 214 0
-30 201 -214 0
-30 31 0
-30 -201 209 0
31 201 206 211 -32 0
31 -201 -206 -211 -32 0
-31 -206 211 0
-31 201 -211 0
-31 32 0
-31 -201 206 0
32 211 216 220 -33 0
32 -211 -216 -220 -33 0
-32 -216 220 0
-32 211 -220 0
-32 33 0
-32 -211 216 0
33 220 224 230 -34 0
33 -220 -224 -230 -34 0
-33 -224 230 0
-33 220 -230 0
-33 34 0
-33 -220 224 0
34 230 234 238 -35 0
34 -230 -234 -238 -35 0
-34 -234 238 0
-34 230 -238 0
-34 35 0
-34 -230 234 0
35 238 242 246 -36 0
35 -238 -242 -246 -36 0
-35 -242 246 0
-35 238 -246 0
-35 36 0
-35 -238 242 0
36 -198 246 250 -37 0
36 198 -246 -250 -37 0
-36 -246 250 0
-36 -198 -250 0
-36 37 0
-36 198 246 0
37 198 203 208 -38 0
37 -198 -203 -208 -38 0
-37 -203 208 0
-37 198 -208 0
-37 38 0
-37 -198 203 0
38 208 213 218 -39 0
38 -208 -213 -218 -39 0
-38 -213 218 0
-38 208 -218 0
-38 39 0
-38 -208 213 0
39 218 222 226 -40 0
39 -218 -222 -226 -40 0
-39 -222 226 0
-39 218 -226 0
-39 40 0
-39 -218 222 0
40 226 228 232 -41 0
40 -226 -228 -232 -41 0
-40 -228 232 0
-40 226 -232 0
-40 41 0
-40 -226 228 0
41 232 236 240 -42 0
41 -232 -236 -240 -42 0
-41 -236 240 0
-41 232 -240 0
-41 42 0
-41 -232 236 0
42 240 244 248 -43 0
42 -240 -244 -248 -43 0
-42 -244 248 0
-42 240 -248 0
-42 43 0
-42 -240 244 0
43 248 -44 -45 46 0
43 -248 44 45 46 0
-43 44 -45 0
-43 248 45 0
-43 -46 0
-43 -248 -44 0
-44 -216 -218 0
-44 216 218 0
44 216 -218 0
44 -216 218 0
-45 -211 -213 0
-45 211 213 0
45 211 -213 0
45 -211 213 0
-46 -45 -47 -48 49 0
-46 45 47 48 49 0
46 47 -48 0
46 -45 48 0
46 -49 0
46 45 -47 0
-47 -206 -208 0
-47 206 208 0
47 206 -208 0
47 -206 208 0
-48 -201 -203 0
-48 201 203 0
48 201 -203 0
48 -201 203 0
-49 -48 -50 -51 52 0
-49 48 50 51 52 0
49 50 -51 0
49 -48 51 0
49 -52 0
49 48 -50 0
-50 -248 -250 0
-50 248 250 0
50 248 -250 0
50 -248 250 0
-51 -244 -246 0
-51 244 246 0
51 244 -246 0
51 -244 246 0
-52 -51 -53 -54 55 0
-52 51 53 54 55 0
52 53 -54 0
52 -51 54 0
52 -55 0
52 51 -53 0
-53 -240 -242 0
-53 240 242 0
53 240 -242 0
53 -240 242 0
-54 -236 -238 0
-54 236 238 0
54 236 -238 0
54 -236 238 0
-55 -54 -56 -57 58 0
-55 54 56 57 58 0
55 56 -57 0
55 -54 57 0
55 -58 0
55 54 -56 0
-56 -232 -234 0
-56 232 234 0
56 232 -234 0
56 -232 234 0
-57 -228 -230 0
-57 228 230 0
57 228 -230 0
57 -228 230 0
-58 220 222 57 59 0
-58 -220 -222 57 59 0
-58 220 -222 -57 -59 0
-58 -220 222 -57 -59 0
58 -57 59 0
58 220 -222 57 0
58 220 222 -59 0
58 -220 222 57 0
58 -220 -222 -59 0
-59 -224 -226 0
-59 224 226 0
59 224 -226 0
59 -224 226 0
60 288 -290 -61 -120 0
60 -288 290 -61 -120 0
-60 120 0
-60 288 290 0
-60 61 0
-60 -288 -290 0
61 -278 280 -62 -63 0
61 278 -280 -62 -63 0
-61 63 0
-61 278 280 0
-61 62 0
-61 -278 -280 0
-62 -283 -285 0
-62 283 285 0
62 283 -285 0
62 -283 285 0
63 -273 275 -64 -65 0
63 273 -275 -64 -65 0
-63 65 0
-63 273 275 0
-63 64 0
-63 -273 -275 0
-64 -320 -322 0
-64 320 322 0
64 320 -322 0
64 -320 322 0
65 -312 314 -66 -67 0
65 312 -314 -66 -67 0
-65 67 0
-65 312 314 0
-65 66 0
-65 -312 -314 0
-66 -316 -318 0
-66 316 318 0
66 316 -318 0
66 -316 318 0
67 -304 306 -68 -69 0
67 304 -306 -68 -69 0
-67 69 0
-67 304 306 0
-67 68 0
-67 -304 -306 0
-68 -308 -310 0
-68 308 310 0
68 308 -310 0
68 -308 310 0
69 -296 298 -70 -71 0
69 296 -298 -70 -71 0
-69 71 0
-69 296 298 0
-69 70 0
-69 -296 -298 0
-70 -300 -302 0
-70 300 302 0
70 300 -302 0
70 -300 302 0
71 292 -294 72 75 0
71 -292 294 72 75 0
-71 -75 0
-71 292 294 0
-71 -72 0
-71 -292 -294 0
-72 200 73 0
-72 -200 -73 0
72 -200 73 0
72 200 -73 0
-73 273 74 0
-73 199 -74 0
73 -273 74 0
73 -199 -74 0
74 -196 -197 -198 0
-74 196 0
-74 197 0
-74 198 0
-75 202 76 77 79 0
-75 -202 -76 77 79 0
75 -79 0
75 -202 76 0
75 -77 0
75 202 -76 0
76 -275 74 0
76 199 -74 0
-76 -199 -74 0
-76 275 74 0
-77 205 78 0
-77 -205 -78 0
77 -205 78 0
77 205 -78 0
-78 278 74 0
-78 204 -74 0
78 -278 74 0
78 -204 -74 0
-79 207 80 81 83 0
-79 -207 -80 81 83 0
79 -83 0
79 -207 80 0
79 -81 0
79 207 -80 0
80 -280 74 0
80 204 -74 0
-80 -204 -74 0
-80 280 74 0
-81 210 82 0
-81 -210 -82 0
81 -210 82 0
81 210 -82 0
-82 283 74 0
-82 209 -74 0
82 -283 74 0
82 -209 -74 0
-83 212 84 85 87 0
-83 -212 -84 85 87 0
83 -87 0
83 -212 84 0
83 -85 0
83 212 -84 0
84 -285 74 0
84 209 -74 0
-84 -209 -74 0
-84 285 74 0
-85 215 86 0
-85 -215 -86 0
85 -215 86 0
85 215 -86 0
-86 288 74 0
-86 214 -74 0
86 -288 74 0
86 -214 -74 0
-87 217 88 89 91 0
-87 -217 -88 89 91 0
87 -91 0
87 -217 88 0
87 -89 0
87 217 -88 0
88 -290 74 0
88 214 -74 0
-88 -214 -74 0
-88 290 74 0
-89 219 90 0
-89 -219 -90 0
89 -219 90 0
89 219 -90 0
-90 214 -74 0
-90 292 74 0
-90 209 -74 0
90 -292 74 0
90 -209 -214 -74 0
-91 221 92 93 95 0
-91 -221 -92 93 95 0
91 -95 0
91 -221 92 0
91 -93 0
91 221 -92 0
92 214 -74 0
92 -294 74 0
92 209 -74 0
-92 294 74 0
-92 -209 -214 -74 0
-93 223 94 0
-93 -223 -94 0
93 -223 94 0
93 223 -94 0
-94 204 -74 0
-94 296 74 0
-94 199 -74 0
94 -296 74 0
94 -199 -204 -74 0
-95 225 96 97 99 0
-95 -225 -96 97 99 0
95 -99 0
95 -225 96 0
95 -97 0
95 225 -96 0
96 204 -74 0
96 -298 74 0
96 199 -74 0
-96 298 74 0
-96 -199 -204 -74 0
-97 227 98 0
-97 -227 -98 0
97 -227 98 0
97 227 -98 0
-98 204 -74 0
-98 300 74 0
-98 -199 -74 0
98 -300 74 0
98 199 -204 -74 0
-99 229 100 101 103 0
-99 -229 -100 101 103 0
99 -103 0
99 -229 100 0
99 -101 0
99 229 -100 0
100 204 -74 0
100 -302 74 0
100 -199 -74 0
-100 302 74 0
-100 199 -204 -74 0
-101 231 102 0
-101 -231 -102 0
101 -231 102 0
101 231 -102 0
-102 304 74 0
-102 199 -74 0
-102 -204 -74 0
102 -304 74 0
102 -199 204 -74 0
-103 233 104 105 107 0
-103 -233 -104 105 107 0
103 -107 0
103 -233 104 0
103 -105 0
103 233 -104 0
104 199 -74 0
104 -306 74 0
104 -204 -74 0
-104 306 74 0
-104 -199 204 -74 0
-105 235 106 0
-105 -235 -106 0
105 -235 106 0
105 235 -106 0
-106 308 74 0
-106 -204 -74 0
-106 -199 -74 0
106 -308 74 0
106 199 204 -74 0
-107 237 108 109 111 0
-107 -237 -108 109 111 0
107 -111 0
107 -237 108 0
107 -109 0
107 237 -108 0
108 -310 74 0
108 -204 -74 0
108 -199 -74 0
-108 310 74 0
-108 199 204 -74 0
-109 239 110 0
-109 -239 -110 0
109 -239 110 0
109 239 -110 0
-110 214 -74 0
-110 312 74 0
-110 -209 -74 0
110 -312 74 0
110 209 -214 -74 0
-111 241 112 113 115 0
-111 -241 -112 113 115 0
111 -115 0
111 -241 112 0
111 -113 0
111 241 -112 0
112 214 -74 0
112 -314 74 0
112 -209 -74 0
-112 314 74 0
-112 209 -214 -74 0
-113 243 114 0
-113 -243 -114 0
113 -243 114 0
113 243 -114 0
-114 316 74 0
-114 209 -74 0
-114 -214 -74 0
114 -316 74 0
114 -209 214 -74 0
-115 -245 -116 117 0
-115 245 116 117 0
115 -117 0
115 -245 116 0
115 245 -116 0
116 209 -74 0
116 -318 74 0
116 -214 -74 0
-116 318 74 0
-116 -209 214 -74 0
-117 247 -249 118 -119 0
-117 247 249 118 119 0
-117 -247 -249 -118 -119 0
-117 -247 249 -118 119 0
117 -247 118 0
117 247 -118 0
117 249 -119 0
117 -249 119 0
-118 320 74 0
-118 -214 -74 0
-118 -209 -74 0
118 -320 74 0
118 209 214 -74 0
119 -322 74 0
119 -214 -74 0
119 -209 -74 0
-119 322 74 0
-119 209 214 -74 0
120 -267 121 0
120 267 -121 0
-120 267 121 0
-120 -267 -121 0
-121 -122 -146 -159 -183 0
-121 122 146 159 183 0
121 -146 183 0
121 122 -183 0
121 146 -159 0
121 -122 159 0
-122 339 124 0
-122 273 124 0
-122 123 124 0
122 -124 0
122 -273 -339 -123 0
123 -278 -283 -288 0
-123 278 0
-123 283 0
-123 288 0
-124 338 125 0
-124 125 123 0
-124 275 125 0
124 -125 0
124 -275 -338 -123 0
-125 337 127 0
-125 273 127 0
-125 126 127 0
125 -127 0
125 -273 -337 -126 0
126 -280 -283 -288 0
-126 280 0
-126 283 0
-126 288 0
-127 336 128 0
-127 128 126 0
-127 275 128 0
127 -128 0
127 -275 -336 -126 0
-128 335 130 0
-128 273 130 0
-128 129 130 0
128 -130 0
128 -273 -335 -129 0
129 -278 -285 -288 0
-129 278 0
-129 285 0
-129 288 0
-130 334 131 0
-130 131 129 0
-130 275 131 0
130 -131 0
130 -275 -334 -129 0
-131 333 133 0
-131 273 133 0
-131 132 133 0
131 -133 0
131 -273 -333 -132 0
132 -280 -285 -288 0
-132 280 0
-132 285 0
-132 288 0
-133 332 134 0
-133 134 132 0
-133 275 134 0
133 -134 0
133 -275 -332 -132 0
-134 331 136 0
-134 273 136 0
-134 135 136 0
134 -136 0
134 -273 -331 -135 0
135 -278 -283 -290 0
-135 278 0
-135 283 0
-135 290 0
-136 330 137 0
-136 137 135 0
-136 275 137 0
136 -137 0
136 -275 -330 -135 0
-137 329 139 0
-137 273 139 0
-137 138 139 0
137 -139 0
137 -273 -329 -138 0
138 -280 -283 -290 0
-138 280 0
-138 283 0
-138 290 0
-139 328 140 0
-139 140 138 0
-139 275 140 0
139 -140 0
139 -275 -328 -138 0
-140 327 142 0
-140 273 142 0
-140 141 142 0
140 -142 0
140 -273 -327 -141 0
141 -278 -285 -290 0
-141 278 0
-141 285 0
-141 290 0
-142 326 143 0
-142 143 141 0
-142 275 143 0
142 -143 0
142 -275 -326 -141 0
-143 325 145 0
-143 144 145 0
-143 275 145 0
143 -145 0
143 -275 -325 -144 0
144 -280 -285 -290 0
-144 280 0
-144 285 0
-144 290 0
145 -273 -324 -144 0
-145 273 0
-145 324 0
-145 144 0
-146 292 147 153 0
-146 147 153 156 0
146 -147 0
146 -153 0
146 -292 -156 0
-147 316 148 0
-147 148 151 152 0
147 -148 0
147 -316 -152 0
147 -316 -151 0
148 -320 -150 0
148 -320 -149 0
-148 320 0
-148 149 150 0
-149 308 324 0
-149 304 325 0
-149 324 325 0
-149 304 308 0
149 -304 -324 0
149 -308 -325 0
-150 326 327 0
-150 296 300 0
-150 300 327 0
-150 296 326 0
150 -300 -326 0
150 -296 -327 0
-151 328 329 0
-151 304 308 0
-151 308 329 0
-151 304 328 0
151 -308 -328 0
151 -304 -329 0
-152 330 331 0
-152 296 300 0
-152 300 331 0
-152 296 330 0
152 -300 -330 0
152 -296 -331 0
153 -312 -155 0
153 -312 -154 0
-153 312 0
-153 154 155 0
-154 332 333 0
-154 304 308 0
-154 308 333 0
-154 304 332 0
154 -308 -332 0
154 -304 -333 0
-155 334 335 0
-155 296 300 0
-155 300 335 0
-155 296 334 0
155 -300 -334 0
155 -296 -335 0
-156 339 157 158 0
-156 296 157 158 0
156 -157 0
156 -158 0
156 -296 -339 0
-157 336 337 0
-157 304 308 0
-157 308 337 0
-157 304 336 0
157 -308 -336 0
157 -304 -337 0
158 -300 -338 0
-158 300 0
-158 338 0
-159 339 161 0
-159 -160 161 0
-159 -275 161 0
159 -161 0
159 275 -339 160 0
-160 280 285 290 0
160 -280 0
160 -290 0
160 -285 0
-161 -273 162 0
-161 338 162 0
-161 162 -160 0
161 -162 0
161 273 -338 160 0
-162 337 164 0
-162 -163 164 0
-162 -275 164 0
162 -164 0
162 275 -337 163 0
-163 278 285 290 0
163 -278 0
163 -290 0
163 -285 0
-164 -273 165 0
-164 336 165 0
-164 165 -163 0
164 -165 0
164 273 -336 163 0
-165 335 167 0
-165 -166 167 0
-165 -275 167 0
165 -167 0
165 275 -335 166 0
-166 280 283 290 0
166 -280 0
166 -290 0
166 -283 0
-167 -273 168 0
-167 334 168 0
-167 168 -166 0
167 -168 0
167 273 -334 166 0
-168 333 170 0
-168 -169 170 0
-168 -275 170 0
168 -170 0
168 275 -333 169 0
-169 278 283 290 0
169 -278 0
169 -290 0
169 -283 0
-170 -273 171 0
-170 332 171 0
-170 171 -169 0
170 -171 0
170 273 -332 169 0
-171 331 173 0
-171 -172 173 0
-171 -275 173 0
171 -173 0
171 275 -331 172 0
-172 280 285 288 0
172 -280 0
172 -288 0
172 -285 0
-173 -273 174 0
-173 330 174 0
-173 174 -172 0
173 -174 0
173 273 -330 172 0
-174 329 176 0
-174 -175 176 0
-174 -275 176 0
174 -176 0
174 275 -329 175 0
-175 278 285 288 0
175 -278 0
175 -288 0
175 -285 0
-176 -273 177 0
-176 328 177 0
-176 177 -175 0
176 -177 0
176 273 -328 175 0
-177 327 179 0
-177 -178 179 0
-177 -275 179 0
177 -179 0
177 275 -327 178 0
-178 280 283 288 0
178 -280 0
178 -288 0
178 -283 0
-179 -273 180 0
-179 326 180 0
-179 180 -178 0
179 -180 0
179 273 -326 178 0
-180 325 182 0
-180 -273 182 0
-180 -181 182 0
180 -182 0
180 273 -325 181 0
-181 278 283 288 0
181 -278 0
181 -288 0
181 -283 0
182 275 -324 181 0
-182 -181 0
-182 324 0
-182 -275 0
-183 184 190 193 0
-183 -294 184 190 0
183 -184 0
183 -190 0
183 294 -193 0
-184 -318 185 0
-184 185 188 189 0
184 -185 0
184 318 -188 0
184 318 -189 0
185 322 -187 0
185 322 -186 0
-185 -322 0
-185 186 187 0
-186 -310 324 0
-186 -306 325 0
-186 -306 -310 0
-186 324 325 0
186 310 -325 0
186 306 -324 0
-187 -298 326 0
-187 -302 327 0
-187 -298 -302 0
-187 326 327 0
187 298 -327 0
187 302 -326 0
-188 -306 328 0
-188 -310 329 0
-188 -306 -310 0
-188 328 329 0
188 306 -329 0
188 310 -328 0
-189 -298 330 0
-189 -302 331 0
-189 -298 -302 0
-189 330 331 0
189 298 -331 0
189 302 -330 0
190 314 -192 0
190 314 -191 0
-190 -314 0
-190 191 192 0
-191 -306 332 0
-191 -310 333 0
-191 -306 -310 0
-191 332 333 0
191 306 -333 0
191 310 -332 0
-192 -298 334 0
-192 -302 335 0
-192 -298 -302 0
-192 334 335 0
192 298 -335 0
192 302 -334 0
-193 -298 194 195 0
-193 339 194 195 0
193 -194 0
193 -195 0
193 298 -339 0
-194 -306 336 0
-194 -310 337 0
-194 -306 -310 0
-194 336 337 0
194 306 -337 0
194 310 -336 0
195 302 -338 0
-195 -302 0
-195 338 0
-343 0
2 0
342 0
196 0
197 0
198 0
199 0
200 0
201 0
202 0
203 0
204 0
205 0
206 0
207 0
208 0
209 0
210 0
211 0
212 0
213 0
214 0
215 0
216 0
217 0
218 0
219 0
220 0
221 0
222 0
223 0
224 0
225 0
226 0
227 0
228 0
229 0
230 0
231 0
232 0
233 0
234 0
235 0
236 0
237 0
238 0
239 0
240 0
241 0
242 0
243 0
244 0
245 0
246 0
247 0
248 0
249 0
250 0
251 0
252 0
253 0
254 0
255 0
256 0
257 0
258 0
259 0
260 0
261 0
262 0
263 0
264 0
265 0
266 0
267 0
3 0
-343 0

